Traveling Salesman Problem/TSP_generados/Aleatorio1620391135_14.tsp
NAME: Aleatorio1620391135_14.tsp
COMMENT: Randomly generated scenario
TYPE: TSP
DIMENSION: 14
EDGE_WEIGHT_TYPE: ATT
NODE_COORD_SECTION
1 15.34 16.16
2 48.19 7.96
3 6.9 24.15
4 11.55 16.52
5 5.38 31.15
6 43.12 24.76
7 10.35 17.55
8 0.37 29.16
9 31.98 33.52
10 1.87 5.78
11 31.58 11.97
12 43.78 46.61
13 1.86 32.22
14 30.44 18.59
