Traveling Salesman Problem/TSP_generados/Aleatorio1620391135_14.opt.tour
NAME: Aleatorio1620391135_14.opt.tour
COMMENT: Optimal solution for Aleatorio1620391135_14 (177.0904764498951)
TYPE: TOUR
DIMENSION: 14
TOUR_SECTION
1 4 7 10 3 8 13 5 9 12 6 2 11 14
-1
EOF
